0 4229
2401 4114
4802 4024
7203 3965
9604 3917
12005 3876
14406 3837
16807 3808
19208 3782
21609 3759
24010 3727
26411 3694
28812 3684
31213 3667
33614 3660
36015 3654
38416 3647
40817 3631
43218 3622
45619 3610
48020 3599
50421 3596
52822 3588
55223 3572
57624 3558
60025 3547
62426 3537
64827 3536
69629 3524
72030 3522
108045 3519
110446 3514
112847 3513
115248 3505
122451 3502
124852 3496
127253 3491
132055 3490
134456 3488
136857 3487
141659 3485
144060 3480
146461 3473
163268 3465
